NAME: I12668-n41-k5
COMMENT : (Fake et al, No of trucks: 5, Optimal value: )
TYPE : CVRP
DIMENSION : 41
EDGE_WEIGHT_TYPE : EUC_2D
CAPACITY : 28
NODE_COORD_SECTION
1 290 679
2 982 603
3 404 20
4 448 475
5 490 945
6 993 824
7 574 760
8 788 104
9 728 147
10 130 374
11 118 836
12 527 198
13 903 959
14 175 985
15 629 359
16 848 509
17 942 847
18 859 867
19 152 686
20 135 519
21 810 698
22 14 925
23 146 89
24 128 302
25 833 775
26 702 420
27 79 132
28 384 53
29 556 574
30 714 260
31 211 388
32 433 820
33 867 580
34 915 100
35 566 497
36 948 107
37 309 217
38 419 611
39 492 667
40 117 17
41 918 231
DEMAND_SECTION
1 0
2 2
3 5
4 4
5 1
6 5
7 2
8 1
9 4
10 3
11 1
12 1
13 4
14 5
15 3
16 5
17 4
18 2
19 1
20 5
21 4
22 5
23 3
24 3
25 4
26 3
27 4
28 2
29 5
30 1
31 2
32 1
33 1
34 1
35 4
36 5
37 4
38 4
39 4
40 4
41 3
DEPOT_SECTION
 1
 -1
 EOF 